\ LP format - for model browsing. Use MPS format to capture full model detail.
\ Signature: 0x1becb326e668c8a4
Minimize
  Cmax
Subject To
 assign_0_0: y_0_0_0 = 1
 proc_time_0_0: Ps_0_0 - 43 y_0_0_0 = 0
 assign_0_1: y_0_0_1 + y_1_0_1 = 1
 proc_time_0_1: Ps_0_1 - 64 y_0_0_1 - 71 y_1_0_1 = 0
 seq_0_0_to_1: t_0_0 + Ps_0_0 - t_0_1 <= 0
 assign_1_0: y_0_1_0 + y_1_1_0 = 1
 proc_time_1_0: Ps_1_0 - 21 y_0_1_0 - 35 y_1_1_0 = 0
 assign_1_1: y_1_1_1 = 1
 proc_time_1_1: Ps_1_1 - 43 y_1_1_1 = 0
 seq_1_0_to_1: t_1_0 + Ps_1_0 - t_1_1 <= 0
 no_overlap1_0_0_0_0_1: t_0_0 + Ps_0_0 + 385 y_0_0_0 - t_0_1 + 385 y_0_0_1
   + 385 z_0_0_0_0_1 <= 1155
 no_overlap2_0_0_0_0_1: - t_0_0 + 385 y_0_0_0 + t_0_1 + Ps_0_1
   + 385 y_0_0_1 - 385 z_0_0_0_0_1 <= 770
 no_overlap1_0_0_0_1_0: t_0_0 + Ps_0_0 + 385 y_0_0_0 - t_1_0 + 385 y_0_1_0
   + 385 z_0_0_0_1_0 <= 1155
 no_overlap2_0_0_0_1_0: - t_0_0 + 385 y_0_0_0 + t_1_0 + Ps_1_0
   + 385 y_0_1_0 - 385 z_0_0_0_1_0 <= 770
 no_overlap1_0_0_1_1_0: t_0_1 + Ps_0_1 + 385 y_0_0_1 - t_1_0 + 385 y_0_1_0
   + 385 z_0_0_1_1_0 <= 1155
 no_overlap2_0_0_1_1_0: - t_0_1 + 385 y_0_0_1 + t_1_0 + Ps_1_0
   + 385 y_0_1_0 - 385 z_0_0_1_1_0 <= 770
 no_overlap1_1_0_1_1_0: t_0_1 + Ps_0_1 + 385 y_1_0_1 - t_1_0 + 385 y_1_1_0
   + 385 z_1_0_1_1_0 <= 1155
 no_overlap2_1_0_1_1_0: - t_0_1 + 385 y_1_0_1 + t_1_0 + Ps_1_0
   + 385 y_1_1_0 - 385 z_1_0_1_1_0 <= 770
 no_overlap1_1_0_1_1_1: t_0_1 + Ps_0_1 + 385 y_1_0_1 - t_1_1 + 385 y_1_1_1
   + 385 z_1_0_1_1_1 <= 1155
 no_overlap2_1_0_1_1_1: - t_0_1 + 385 y_1_0_1 + t_1_1 + Ps_1_1
   + 385 y_1_1_1 - 385 z_1_0_1_1_1 <= 770
 no_overlap1_1_1_0_1_1: t_1_0 + Ps_1_0 + 385 y_1_1_0 - t_1_1 + 385 y_1_1_1
   + 385 z_1_1_0_1_1 <= 1155
 no_overlap2_1_1_0_1_1: - t_1_0 + 385 y_1_1_0 + t_1_1 + Ps_1_1
   + 385 y_1_1_1 - 385 z_1_1_0_1_1 <= 770
 cmax_job_0: Cmax - t_0_1 - Ps_0_1 >= 0
 cmax_job_1: Cmax - t_1_1 - Ps_1_1 >= 0
Bounds
Binaries
 y_0_0_0 y_0_0_1 y_1_0_1 y_0_1_0 y_1_1_0 y_1_1_1 z_0_0_0_0_1 z_0_0_0_1_0
 z_0_0_1_1_0 z_1_0_1_1_0 z_1_0_1_1_1 z_1_1_0_1_1
End
